p cnf 239 676
c weights 1.0 1.0 2.718281828459045 0.36787944117144233 2.718281828459045 0.36787944117144233 2.718281828459045 0.36787944117144233 2.718281828459045 0.36787944117144233 2.718281828459045 0.36787944117144233 1.0 1.0 2.718281828459045 0.36787944117144233 2.718281828459045 0.36787944117144233 2.718281828459045 0.36787944117144233 2.718281828459045 0.36787944117144233 2.718281828459045 0.36787944117144233 2.718281828459045 0.36787944117144233 1.0 1.0 2.718281828459045 0.36787944117144233 2.718281828459045 0.36787944117144233 2.718281828459045 0.36787944117144233 2.718281828459045 0.36787944117144233 2.718281828459045 0.36787944117144233 2.718281828459045 0.36787944117144233 1.0 1.0 2.718281828459045 0.36787944117144233 2.718281828459045 0.36787944117144233 2.718281828459045 0.36787944117144233 2.718281828459045 0.36787944117144233 2.718281828459045 0.36787944117144233 2.718281828459045 0.36787944117144233 1.0 1.0 2.718281828459045 0.36787944117144233 2.718281828459045 0.36787944117144233 2.718281828459045 0.36787944117144233 2.718281828459045 0.36787944117144233 2.718281828459045 0.36787944117144233 1.0 1.0 2.718281828459045 0.36787944117144233 2.718281828459045 0.36787944117144233 2.718281828459045 0.36787944117144233 2.718281828459045 0.36787944117144233 2.718281828459045 0.36787944117144233 1.0 1.0 2.718281828459045 0.36787944117144233 2.718281828459045 0.36787944117144233 2.718281828459045 0.36787944117144233 2.718281828459045 0.36787944117144233 2.718281828459045 0.36787944117144233 2.718281828459045 0.36787944117144233 2.718281828459045 0.36787944117144233 1.0 1.0 2.718281828459045 0.36787944117144233 2.718281828459045 0.36787944117144233 1.0 1.0 2.718281828459045 0.36787944117144233 2.718281828459045 0.36787944117144233 2.718281828459045 0.36787944117144233 2.718281828459045 0.36787944117144233 2.718281828459045 0.36787944117144233 2.718281828459045 0.36787944117144233 2.718281828459045 0.36787944117144233 1.0 1.0 2.718281828459045 0.36787944117144233 2.718281828459045 0.36787944117144233 2.718281828459045 0.36787944117144233 1.0 1.0 2.718281828459045 0.36787944117144233 2.718281828459045 0.36787944117144233 2.718281828459045 0.36787944117144233 1.0 1.0 2.718281828459045 0.36787944117144233 2.718281828459045 0.36787944117144233 2.718281828459045 0.36787944117144233 2.718281828459045 0.36787944117144233 1.0 1.0 2.718281828459045 0.36787944117144233 2.718281828459045 0.36787944117144233 2.718281828459045 0.36787944117144233 2.718281828459045 0.36787944117144233 2.718281828459045 0.36787944117144233 1.0 1.0 2.718281828459045 0.36787944117144233 2.718281828459045 0.36787944117144233 1.0 1.0 2.718281828459045 0.36787944117144233 2.718281828459045 0.36787944117144233 2.718281828459045 0.36787944117144233 2.718281828459045 0.36787944117144233 2.718281828459045 0.36787944117144233 1.0 1.0 2.718281828459045 0.36787944117144233 2.718281828459045 0.36787944117144233 2.718281828459045 0.36787944117144233 1.0 1.0 2.718281828459045 0.36787944117144233 2.718281828459045 0.36787944117144233 2.718281828459045 0.36787944117144233 2.718281828459045 0.36787944117144233 1.0 1.0 2.718281828459045 0.36787944117144233 2.718281828459045 0.36787944117144233 2.718281828459045 0.36787944117144233 2.718281828459045 0.36787944117144233 2.718281828459045 0.36787944117144233 2.718281828459045 0.36787944117144233 1.0 1.0 2.718281828459045 0.36787944117144233 2.718281828459045 0.36787944117144233 1.0 1.0 2.718281828459045 0.36787944117144233 2.718281828459045 0.36787944117144233 2.718281828459045 0.36787944117144233 1.0 1.0 2.718281828459045 0.36787944117144233 2.718281828459045 0.36787944117144233 2.718281828459045 0.36787944117144233 2.718281828459045 0.36787944117144233 1.0 1.0 2.718281828459045 0.36787944117144233 2.718281828459045 0.36787944117144233 1.0 1.0 2.718281828459045 0.36787944117144233 2.718281828459045 0.36787944117144233 2.718281828459045 0.36787944117144233 2.718281828459045 0.36787944117144233 1.0 1.0 2.718281828459045 0.36787944117144233 1.0 1.0 2.718281828459045 0.36787944117144233 2.718281828459045 0.36787944117144233 2.718281828459045 0.36787944117144233 1.0 1.0 1.0 1.0 2.718281828459045 0.36787944117144233 2.718281828459045 0.36787944117144233 2.718281828459045 0.36787944117144233 2.718281828459045 0.36787944117144233 2.718281828459045 0.36787944117144233 2.718281828459045 0.36787944117144233 1.0 1.0 1.0 1.0 2.718281828459045 0.36787944117144233 2.718281828459045 0.36787944117144233 1.0 1.0 2.718281828459045 0.36787944117144233 2.718281828459045 0.36787944117144233 1.0 1.0 2.718281828459045 0.36787944117144233 1.0 1.0 2.718281828459045 0.36787944117144233 2.718281828459045 0.36787944117144233 1.0 1.0 2.718281828459045 0.36787944117144233 2.718281828459045 0.36787944117144233 2.718281828459045 0.36787944117144233 2.718281828459045 0.36787944117144233 2.718281828459045 0.36787944117144233 1.0 1.0 2.718281828459045 0.36787944117144233 2.718281828459045 0.36787944117144233 2.718281828459045 0.36787944117144233 1.0 1.0 2.718281828459045 0.36787944117144233 2.718281828459045 0.36787944117144233 2.718281828459045 0.36787944117144233 1.0 1.0 2.718281828459045 0.36787944117144233 1.0 1.0 2.718281828459045 0.36787944117144233 2.718281828459045 0.36787944117144233 1.0 1.0 2.718281828459045 0.36787944117144233 2.718281828459045 0.36787944117144233 2.718281828459045 0.36787944117144233 2.718281828459045 0.36787944117144233 2.718281828459045 0.36787944117144233 1.0 1.0 2.718281828459045 0.36787944117144233 2.718281828459045 0.36787944117144233 1.0 1.0 2.718281828459045 0.36787944117144233 2.718281828459045 0.36787944117144233 2.718281828459045 0.36787944117144233 2.718281828459045 0.36787944117144233 1.0 1.0 2.718281828459045 0.36787944117144233 1.0 1.0 1.0 1.0 2.718281828459045 0.36787944117144233 2.718281828459045 0.36787944117144233 2.718281828459045 0.36787944117144233 2.718281828459045 0.36787944117144233 1.0 1.0 2.718281828459045 0.36787944117144233 2.718281828459045 0.36787944117144233 1.0 1.0 2.718281828459045 0.36787944117144233 2.718281828459045 0.36787944117144233 1.0 1.0 2.718281828459045 0.36787944117144233 2.718281828459045 0.36787944117144233 1.0 1.0 2.718281828459045 0.36787944117144233 1.0 1.0 2.718281828459045 0.36787944117144233 2.718281828459045 0.36787944117144233 1.0 1.0 2.718281828459045 0.36787944117144233 2.718281828459045 0.36787944117144233 1.0 1.0 2.718281828459045 0.36787944117144233 1.0 1.0 1.0 1.0 2.718281828459045 0.36787944117144233 1.0 1.0 2.718281828459045 0.36787944117144233 2.718281828459045 0.36787944117144233 2.718281828459045 0.36787944117144233 2.718281828459045 0.36787944117144233 1.0 1.0 1.0 1.0 1.0 1.0 1.0 1.0 2.718281828459045 0.36787944117144233 2.718281828459045 0.36787944117144233 1.0 1.0 2.718281828459045 0.36787944117144233 1.0 1.0 1.0 1.0 1.0 1.0 2.718281828459045 0.36787944117144233 1.0 1.0 2.718281828459045 0.36787944117144233 1.0 1.0 2.718281828459045 0.36787944117144233 1.0 1.0 1.0 1.0 1.0 1.0 1.0 1.0 1.0 1.0 1.0 1.0 1.0 1.0
2 1 63 0
2 -1 -63 0
-2 1 -63 0
-2 -1 63 0
3 1 106 0
3 -1 -106 0
-3 1 -106 0
-3 -1 106 0
4 1 110 0
4 -1 -110 0
-4 1 -110 0
-4 -1 110 0
5 1 149 0
5 -1 -149 0
-5 1 -149 0
-5 -1 149 0
6 1 233 0
6 -1 -233 0
-6 1 -233 0
-6 -1 233 0
8 7 177 0
8 -7 -177 0
-8 7 -177 0
-8 -7 177 0
9 7 190 0
9 -7 -190 0
-9 7 -190 0
-9 -7 190 0
10 7 196 0
10 -7 -196 0
-10 7 -196 0
-10 -7 196 0
11 7 212 0
11 -7 -212 0
-11 7 -212 0
-11 -7 212 0
12 7 219 0
12 -7 -219 0
-12 7 -219 0
-12 -7 219 0
13 7 225 0
13 -7 -225 0
-13 7 -225 0
-13 -7 225 0
15 14 63 0
15 -14 -63 0
-15 14 -63 0
-15 -14 63 0
16 14 123 0
16 -14 -123 0
-16 14 -123 0
-16 -14 123 0
17 14 125 0
17 -14 -125 0
-17 14 -125 0
-17 -14 125 0
18 14 138 0
18 -14 -138 0
-18 14 -138 0
-18 -14 138 0
19 14 199 0
19 -14 -199 0
-19 14 -199 0
-19 -14 199 0
20 14 225 0
20 -14 -225 0
-20 14 -225 0
-20 -14 225 0
22 21 51 0
22 -21 -51 0
-22 21 -51 0
-22 -21 51 0
23 21 149 0
23 -21 -149 0
-23 21 -149 0
-23 -21 149 0
24 21 155 0
24 -21 -155 0
-24 21 -155 0
-24 -21 155 0
25 21 193 0
25 -21 -193 0
-25 21 -193 0
-25 -21 193 0
26 21 233 0
26 -21 -233 0
-26 21 -233 0
-26 -21 233 0
27 21 237 0
27 -21 -237 0
-27 21 -237 0
-27 -21 237 0
29 28 110 0
29 -28 -110 0
-29 28 -110 0
-29 -28 110 0
30 28 118 0
30 -28 -118 0
-30 28 -118 0
-30 -28 118 0
31 28 149 0
31 -28 -149 0
-31 28 -149 0
-31 -28 149 0
32 28 226 0
32 -28 -226 0
-32 28 -226 0
-32 -28 226 0
33 28 234 0
33 -28 -234 0
-33 28 -234 0
-33 -28 234 0
35 34 137 0
35 -34 -137 0
-35 34 -137 0
-35 -34 137 0
36 34 182 0
36 -34 -182 0
-36 34 -182 0
-36 -34 182 0
37 34 201 0
37 -34 -201 0
-37 34 -201 0
-37 -34 201 0
38 34 204 0
38 -34 -204 0
-38 34 -204 0
-38 -34 204 0
39 34 225 0
39 -34 -225 0
-39 34 -225 0
-39 -34 225 0
41 40 91 0
41 -40 -91 0
-41 40 -91 0
-41 -40 91 0
42 40 137 0
42 -40 -137 0
-42 40 -137 0
-42 -40 137 0
43 40 159 0
43 -40 -159 0
-43 40 -159 0
-43 -40 159 0
44 40 185 0
44 -40 -185 0
-44 40 -185 0
-44 -40 185 0
45 40 209 0
45 -40 -209 0
-45 40 -209 0
-45 -40 209 0
46 40 229 0
46 -40 -229 0
-46 40 -229 0
-46 -40 229 0
47 40 234 0
47 -40 -234 0
-47 40 -234 0
-47 -40 234 0
49 48 123 0
49 -48 -123 0
-49 48 -123 0
-49 -48 123 0
50 48 141 0
50 -48 -141 0
-50 48 -141 0
-50 -48 141 0
52 51 67 0
52 -51 -67 0
-52 51 -67 0
-52 -51 67 0
53 51 123 0
53 -51 -123 0
-53 51 -123 0
-53 -51 123 0
54 51 130 0
54 -51 -130 0
-54 51 -130 0
-54 -51 130 0
55 51 165 0
55 -51 -165 0
-55 51 -165 0
-55 -51 165 0
56 51 199 0
56 -51 -199 0
-56 51 -199 0
-56 -51 199 0
57 51 209 0
57 -51 -209 0
-57 51 -209 0
-57 -51 209 0
58 51 218 0
58 -51 -218 0
-58 51 -218 0
-58 -51 218 0
60 59 146 0
60 -59 -146 0
-60 59 -146 0
-60 -59 146 0
61 59 174 0
61 -59 -174 0
-61 59 -174 0
-61 -59 174 0
62 59 239 0
62 -59 -239 0
-62 59 -239 0
-62 -59 239 0
64 63 123 0
64 -63 -123 0
-64 63 -123 0
-64 -63 123 0
65 63 177 0
65 -63 -177 0
-65 63 -177 0
-65 -63 177 0
66 63 233 0
66 -63 -233 0
-66 63 -233 0
-66 -63 233 0
68 67 138 0
68 -67 -138 0
-68 67 -138 0
-68 -67 138 0
69 67 184 0
69 -67 -184 0
-69 67 -184 0
-69 -67 184 0
70 67 218 0
70 -67 -218 0
-70 67 -218 0
-70 -67 218 0
71 67 226 0
71 -67 -226 0
-71 67 -226 0
-71 -67 226 0
73 72 123 0
73 -72 -123 0
-73 72 -123 0
-73 -72 123 0
74 72 199 0
74 -72 -199 0
-74 72 -199 0
-74 -72 199 0
75 72 201 0
75 -72 -201 0
-75 72 -201 0
-75 -72 201 0
76 72 218 0
76 -72 -218 0
-76 72 -218 0
-76 -72 218 0
77 72 229 0
77 -72 -229 0
-77 72 -229 0
-77 -72 229 0
79 78 137 0
79 -78 -137 0
-79 78 -137 0
-79 -78 137 0
80 78 165 0
80 -78 -165 0
-80 78 -165 0
-80 -78 165 0
82 81 103 0
82 -81 -103 0
-82 81 -103 0
-82 -81 103 0
83 81 110 0
83 -81 -110 0
-83 81 -110 0
-83 -81 110 0
84 81 149 0
84 -81 -149 0
-84 81 -149 0
-84 -81 149 0
85 81 177 0
85 -81 -177 0
-85 81 -177 0
-85 -81 177 0
86 81 212 0
86 -81 -212 0
-86 81 -212 0
-86 -81 212 0
88 87 149 0
88 -87 -149 0
-88 87 -149 0
-88 -87 149 0
89 87 204 0
89 -87 -204 0
-89 87 -204 0
-89 -87 204 0
90 87 218 0
90 -87 -218 0
-90 87 -218 0
-90 -87 218 0
92 91 96 0
92 -91 -96 0
-92 91 -96 0
-92 -91 96 0
93 91 201 0
93 -91 -201 0
-93 91 -201 0
-93 -91 201 0
94 91 227 0
94 -91 -227 0
-94 91 -227 0
-94 -91 227 0
95 91 234 0
95 -91 -234 0
-95 91 -234 0
-95 -91 234 0
97 96 177 0
97 -96 -177 0
-97 96 -177 0
-97 -96 177 0
98 96 185 0
98 -96 -185 0
-98 96 -185 0
-98 -96 185 0
99 96 201 0
99 -96 -201 0
-99 96 -201 0
-99 -96 201 0
100 96 212 0
100 -96 -212 0
-100 96 -212 0
-100 -96 212 0
101 96 219 0
101 -96 -219 0
-101 96 -219 0
-101 -96 219 0
102 96 225 0
102 -96 -225 0
-102 96 -225 0
-102 -96 225 0
104 103 165 0
104 -103 -165 0
-104 103 -165 0
-104 -103 165 0
105 103 196 0
105 -103 -196 0
-105 103 -196 0
-105 -103 196 0
107 106 146 0
107 -106 -146 0
-107 106 -146 0
-107 -106 146 0
108 106 201 0
108 -106 -201 0
-108 106 -201 0
-108 -106 201 0
109 106 235 0
109 -106 -235 0
-109 106 -235 0
-109 -106 235 0
111 110 141 0
111 -110 -141 0
-111 110 -141 0
-111 -110 141 0
112 110 190 0
112 -110 -190 0
-112 110 -190 0
-112 -110 190 0
113 110 199 0
113 -110 -199 0
-113 110 -199 0
-113 -110 199 0
114 110 209 0
114 -110 -209 0
-114 110 -209 0
-114 -110 209 0
116 115 130 0
116 -115 -130 0
-116 115 -130 0
-116 -115 130 0
117 115 168 0
117 -115 -168 0
-117 115 -168 0
-117 -115 168 0
119 118 149 0
119 -118 -149 0
-119 118 -149 0
-119 -118 149 0
120 118 163 0
120 -118 -163 0
-120 118 -163 0
-120 -118 163 0
121 118 219 0
121 -118 -219 0
-121 118 -219 0
-121 -118 219 0
122 118 227 0
122 -118 -227 0
-122 118 -227 0
-122 -118 227 0
124 123 196 0
124 -123 -196 0
-124 123 -196 0
-124 -123 196 0
126 125 155 0
126 -125 -155 0
-126 125 -155 0
-126 -125 155 0
127 125 177 0
127 -125 -177 0
-127 125 -177 0
-127 -125 177 0
128 125 204 0
128 -125 -204 0
-128 125 -204 0
-128 -125 204 0
131 130 137 0
131 -130 -137 0
-131 130 -137 0
-131 -130 137 0
132 130 149 0
132 -130 -149 0
-132 130 -149 0
-132 -130 149 0
133 130 165 0
133 -130 -165 0
-133 130 -165 0
-133 -130 165 0
134 130 182 0
134 -130 -182 0
-134 130 -182 0
-134 -130 182 0
135 130 218 0
135 -130 -218 0
-135 130 -218 0
-135 -130 218 0
136 130 238 0
136 -130 -238 0
-136 130 -238 0
-136 -130 238 0
139 138 146 0
139 -138 -146 0
-139 138 -146 0
-139 -138 146 0
140 138 220 0
140 -138 -220 0
-140 138 -220 0
-140 -138 220 0
142 141 182 0
142 -141 -182 0
-142 141 -182 0
-142 -141 182 0
143 141 184 0
143 -141 -184 0
-143 141 -184 0
-143 -141 184 0
145 144 163 0
145 -144 -163 0
-145 144 -163 0
-145 -144 163 0
147 146 165 0
147 -146 -165 0
-147 146 -165 0
-147 -146 165 0
148 146 209 0
148 -146 -209 0
-148 146 -209 0
-148 -146 209 0
150 149 163 0
150 -149 -163 0
-150 149 -163 0
-150 -149 163 0
151 149 223 0
151 -149 -223 0
-151 149 -223 0
-151 -149 223 0
152 149 225 0
152 -149 -225 0
-152 149 -225 0
-152 -149 225 0
153 149 233 0
153 -149 -233 0
-153 149 -233 0
-153 -149 233 0
154 149 239 0
154 -149 -239 0
-154 149 -239 0
-154 -149 239 0
156 155 229 0
156 -155 -229 0
-156 155 -229 0
-156 -155 229 0
157 155 233 0
157 -155 -233 0
-157 155 -233 0
-157 -155 233 0
158 155 237 0
158 -155 -237 0
-158 155 -237 0
-158 -155 237 0
160 159 174 0
160 -159 -174 0
-160 159 -174 0
-160 -159 174 0
161 159 212 0
161 -159 -212 0
-161 159 -212 0
-161 -159 212 0
162 159 233 0
162 -159 -233 0
-162 159 -233 0
-162 -159 233 0
164 163 234 0
164 -163 -234 0
-164 163 -234 0
-164 -163 234 0
166 165 190 0
166 -165 -190 0
-166 165 -190 0
-166 -165 190 0
167 165 238 0
167 -165 -238 0
-167 165 -238 0
-167 -165 238 0
169 168 193 0
169 -168 -193 0
-169 168 -193 0
-169 -168 193 0
170 168 219 0
170 -168 -219 0
-170 168 -219 0
-170 -168 219 0
171 168 223 0
171 -168 -223 0
-171 168 -223 0
-171 -168 223 0
172 168 234 0
172 -168 -234 0
-172 168 -234 0
-172 -168 234 0
173 168 239 0
173 -168 -239 0
-173 168 -239 0
-173 -168 239 0
175 174 212 0
175 -174 -212 0
-175 174 -212 0
-175 -174 212 0
176 174 227 0
176 -174 -227 0
-176 174 -227 0
-176 -174 227 0
178 177 212 0
178 -177 -212 0
-178 177 -212 0
-178 -177 212 0
179 177 225 0
179 -177 -225 0
-179 177 -225 0
-179 -177 225 0
180 177 227 0
180 -177 -227 0
-180 177 -227 0
-180 -177 227 0
181 177 238 0
181 -177 -238 0
-181 177 -238 0
-181 -177 238 0
183 182 209 0
183 -182 -209 0
-183 182 -209 0
-183 -182 209 0
186 185 199 0
186 -185 -199 0
-186 185 -199 0
-186 -185 199 0
187 185 204 0
187 -185 -204 0
-187 185 -204 0
-187 -185 204 0
188 185 209 0
188 -185 -209 0
-188 185 -209 0
-188 -185 209 0
189 185 218 0
189 -185 -218 0
-189 185 -218 0
-189 -185 218 0
191 190 193 0
191 -190 -193 0
-191 190 -193 0
-191 -190 193 0
192 190 236 0
192 -190 -236 0
-192 190 -236 0
-192 -190 236 0
194 193 227 0
194 -193 -227 0
-194 193 -227 0
-194 -193 227 0
195 193 229 0
195 -193 -229 0
-195 193 -229 0
-195 -193 229 0
197 196 218 0
197 -196 -218 0
-197 196 -218 0
-197 -196 218 0
198 196 225 0
198 -196 -225 0
-198 196 -225 0
-198 -196 225 0
200 199 223 0
200 -199 -223 0
-200 199 -223 0
-200 -199 223 0
202 201 225 0
202 -201 -225 0
-202 201 -225 0
-202 -201 225 0
203 201 238 0
203 -201 -238 0
-203 201 -238 0
-203 -201 238 0
205 204 234 0
205 -204 -234 0
-205 204 -234 0
-205 -204 234 0
206 204 238 0
206 -204 -238 0
-206 204 -238 0
-206 -204 238 0
208 207 219 0
208 -207 -219 0
-208 207 -219 0
-208 -207 219 0
211 210 212 0
211 -210 -212 0
-211 210 -212 0
-211 -210 212 0
213 212 217 0
213 -212 -217 0
-213 212 -217 0
-213 -212 217 0
214 212 225 0
214 -212 -225 0
-214 212 -225 0
-214 -212 225 0
215 212 229 0
215 -212 -229 0
-215 212 -229 0
-215 -212 229 0
216 212 233 0
216 -212 -233 0
-216 212 -233 0
-216 -212 233 0
221 220 227 0
221 -220 -227 0
-221 220 -227 0
-221 -220 227 0
222 220 237 0
222 -220 -237 0
-222 220 -237 0
-222 -220 237 0
224 223 238 0
224 -223 -238 0
-224 223 -238 0
-224 -223 238 0
228 227 235 0
228 -227 -235 0
-228 227 -235 0
-228 -227 235 0
230 229 231 0
230 -229 -231 0
-230 229 -231 0
-230 -229 231 0
232 231 234 0
232 -231 -234 0
-232 231 -234 0
-232 -231 234 0
